67
0 17 32 66 49 56 64 5 14 43 
20 16 47 51 29 1 52 21 28 46 
50 41 54 65 19 4 61 63 39 58 
33 57 62 44 8 45 30 38 37 2 
36 42 7 12 6 22 15 9 26 11 
59 13 31 40 35 18 53 60 34 24 
55 10 48 23 3 25 27 
